c --- [ banner ] -------------------------------------------------------------
c 
c CaDiCaL Radically Simplified CDCL SAT Solver
c Copyright (c) 2016-2021 A. Biere, M. Fleury, N. Froleyks
c 
c Version 1.5.2 ca9bff05c11bde5eae4912f9932871d1527e61d8
c g++ (GCC) 9.3.0 -Wall -Wextra -O3 -DNDEBUG
c Sun May 1 02:23:23 EDT 2022 Linux gra-login1 3.10.0-1160.59.1.el7.x86_64 x86_64
c 
c --- [ limit ] --------------------------------------------------------------
c 
c setting conflict limit to 200000 conflicts (due to '200000')
c 
c --- [ parsing input ] ------------------------------------------------------
c 
c reading DIMACS file from '12.cubes795.adj'
c opening file to read '12.cubes795.adj'
c found 'p cnf 5320 924210' header
c parsed 924210 clauses in 8.81 seconds process time
c closing file '12.cubes795.adj'
c after reading 686668110 bytes 654.9 MB
c 
c --- [ options ] ------------------------------------------------------------
c 
c all options are set to their default value
c 
c --- [ solving ] ------------------------------------------------------------
c 
c time measured in process time since initialization
c 
c  seconds   reductions  redundant  irredundant
c          MB    restarts       trail      variables
c           level   conflicts       glue        remaining
c 
c *  8.81 691  0 0   0    0    0  0% 0 923580 4020 76%
c {  9.33 716  0 0   0    0    0  0% 0 923580 4020 76%
c i  9.58 722 170 0   0   21    6 46% 11 923580 3960 74%
c i  9.66 723 167 0   0   24    8 46% 8 923580 3952 74%
c i 10.53 736 117 0   0   97   79 46% 5 923580 3906 73%
c i 10.62 737 114 0   0  101   82 47% 4 923580 3905 73%
c i 10.89 740 102 0   4  128  104 47% 6 923580 3869 73%
c i 11.08 740 96 0  10  149  122 48% 12 923580 3868 73%
c i 11.14 740 96 0  13  160  131 48% 12 923580 3867 73%
c i 11.27 740 73 0  19  220  148 45% 11 923580 3866 73%
c - 13.41 694 75 1  36  303  185 44% 14 57251 3866 73%
c i 13.47 694 74 1  36  307  188 43% 14 57251 3865 73%
c i 13.48 694 74 1  36  308  188 43% 13 57251 3864 73%
c i 13.58 694 71 1  47  352  219 44% 17 57251 3863 73%
c i 13.59 694 72 1  49  362  225 45% 18 57251 3862 73%
c i 13.59 694 72 1  51  368  229 45% 19 57251 3861 73%
c i 13.61 694 72 1  53  376  236 45% 20 57251 3860 73%
c i 13.62 694 71 1  56  387  246 45% 20 57251 3859 73%
c i 13.62 694 73 1  58  397  253 45% 21 57251 3857 72%
c i 13.65 694 76 1  60  408  259 45% 21 57251 3856 72%
c 
c  seconds   reductions  redundant   irredundant
c          MB    restarts       trail      variables
c           level   conflicts       glue        remaining
c 
c i 13.70 694 77 1  65  431  274 45% 22 57251 3855 72%
c i 13.70 694 77 1  66  434  275 45% 22 57251 3854 72%
c i 13.70 694 77 1  66  436  276 45% 22 57251 3853 72%
c i 13.70 694 77 1  67  437  276 45% 22 57251 3811 72%
c i 13.71 694 76 1  67  439  277 45% 22 57251 3810 72%
c i 13.72 694 76 1  68  444  281 45% 23 57251 3809 72%
c i 13.72 694 76 1  69  445  281 45% 23 57251 3808 72%
c i 13.79 694 71 1  84  512  332 46% 23 57251 3807 72%
c i 13.80 694 69 1  84  532  347 46% 23 57251 3806 72%
c i 13.82 694 69 1  86  560  367 47% 23 57251 3805 72%
c i 13.85 694 64 1  95  626  411 47% 23 57251 3804 72%
c i 13.85 694 63 1  95  639  422 48% 23 57251 3803 71%
c i 13.85 694 63 1  95  649  430 48% 23 57251 3802 71%
c i 13.96 694 65 1 108  711  487 48% 24 57251 3801 71%
c i 14.00 694 64 1 112  726  501 48% 24 57251 3800 71%
c i 14.00 694 64 1 112  729  503 48% 24 57251 3799 71%
c i 14.02 694 63 1 112  746  518 48% 24 57251 3798 71%
c i 14.02 694 63 1 112  754  525 48% 24 57251 3797 71%
c i 14.08 694 62 1 112  799  563 48% 24 57251 3796 71%
c i 14.16 694 61 1 118  872  622 48% 24 57251 3795 71%
c 
c  seconds   reductions  redundant   irredundant
c          MB    restarts       trail      variables
c           level   conflicts       glue        remaining
c 
c i 14.16 694 60 1 119  891  637 48% 24 57251 3794 71%
c - 14.29 697 60 2 120  904  594 49% 24 56569 3794 71%
c i 14.29 697 60 2 120  905  594 49% 24 56569 3793 71%
c i 14.33 697 59 2 124  950  628 49% 24 56569 3792 71%
c i 14.33 697 59 2 124  951  628 49% 24 56569 3791 71%
c i 14.33 697 59 2 124  955  630 49% 24 56569 3790 71%
c } 14.38 697 58 2 125 1000  666 49% 24 56569 3790 71%
c [ 14.38 697  0 2 125 1000  666  0% 0 56569 3790 71%
c O 14.38 697 23 2 125 1005  670 50% 15 56569 3790 71%
c i 14.43 697 14 2 125 1109  721 55% 12 56569 3789 71%
c i 14.45 697 15 2 125 1253  799 56% 12 56569 3788 71%
c i 14.47 697 19 2 125 1355  863 56% 15 56569 3787 71%
c i 14.47 697 19 2 125 1382  883 56% 15 56569 3786 71%
c i 14.48 697 19 2 125 1419  906 56% 15 56569 3785 71%
c i 14.48 697 19 2 125 1420  906 56% 15 56569 3784 71%
c i 14.49 697 19 2 125 1490  950 56% 15 56569 3783 71%
c i 14.49 697 18 2 125 1491  950 55% 15 56569 3782 71%
c i 14.50 697 18 2 125 1531  969 56% 15 56569 3781 71%
c i 14.50 697 18 2 125 1588  997 55% 15 56569 3780 71%
c i 14.52 697 18 2 125 1677 1060 55% 15 56569 3779 71%
c 
c  seconds   reductions  redundant   irredundant
c          MB    restarts       trail      variables
c           level   conflicts       glue        remaining
c 
c i 14.53 697 18 2 125 1708 1084 55% 15 56569 3778 71%
c i 14.53 697 18 2 125 1728 1097 55% 15 56569 3777 71%
c i 14.54 697 18 2 125 1754 1113 55% 15 56569 3776 71%
c i 14.55 697 19 2 125 1800 1146 55% 15 56569 3775 71%
c - 14.60 667 19 3 125 1806  871 55% 15 56515 3775 71%
c i 14.60 667 19 3 125 1807  871 55% 15 56515 3774 71%
c i 14.65 667 21 3 125 1981  976 55% 17 56515 3773 71%
c i 14.77 667 24 3 126 2770 1457 55% 20 56515 3772 71%
c i 14.78 667 24 3 126 2833 1492 55% 20 56515 3771 71%
c ] 14.81 667 24 3 126 3000 1596 55% 20 56515 3771 71%
c { 14.81 667 58 3 126 3000 1596 49% 24 56515 3771 71%
c - 14.85 685 58 4 126 3007 1202 49% 24 56504 3771 71%
c F 14.88 667 58 4 126 3008 1202  8% 24 56504 3771 71%
c i 14.88 667 58 4 126 3008 1202  8% 24 56504 3770 71%
c i 14.92 667 55 4 126 3066 1238 37% 23 56504 3769 71%
c i 14.93 667 56 4 126 3074 1245 35% 23 56504 3768 71%
c i 14.97 667 56 4 130 3112 1278 35% 23 56504 3767 71%
c i 15.01 667 53 4 134 3255 1395 36% 23 56504 3766 71%
c i 15.11 667 54 4 159 3366 1487 35% 24 56504 3765 71%
c i 15.23 667 50 4 170 3660 1718 35% 23 56504 3764 71%
c 
c  seconds   reductions  redundant   irredundant
c          MB    restarts       trail      variables
c           level   conflicts       glue        remaining
c 
c i 15.24 667 50 4 170 3703 1752 35% 23 56504 3763 71%
c i 15.28 667 46 4 170 4011 1953 35% 23 56504 3762 71%
c i 15.31 667 44 4 170 4174 2066 35% 23 56504 3761 71%
c i 15.35 667 43 4 173 4389 2207 35% 22 56504 3760 71%
c - 15.42 667 42 5 174 4507 1645 35% 22 56471 3760 71%
c i 15.48 667 41 5 179 4713 1819 35% 22 56471 3759 71%
c d 15.62 667 40 5 179 5001 2028 36% 22 54898 3751 71%
c 2 15.64 667 40 5 179 5001 4295 36% 22 54845 3751 71%
c p 16.78 667 40 5 179 5001 12142 36% 22 54845 3649 69%
c d 16.84 667 40 5 179 5001 11634 36% 22 54350 3646 69%
c d 16.87 667 40 5 179 5001 11632 36% 22 54346 3644 68%
c # 17.14 667 35 5 191 6009 12351 36% 21 54346 3644 68%
c - 17.24 667 34 6 191 6307 2364 36% 20 54346 3644 68%
c } 17.34 667 32 6 201 7004 2810 36% 20 54346 3644 68%
c [ 17.34 667 24 6 201 7004 2810 77% 20 54346 3644 68%
c - 17.54 667 22 7 202 8407 2392 60% 18 54346 3644 68%
c I 17.76 667 24 7 203 10012 3455 52% 19 54346 3644 68%
c - 17.93 667 27 8 204 10811 2821 49% 21 54346 3644 68%
c - 18.63 667 34 9 206 13515 3358 45% 28 54346 3644 68%
c 2 19.10 667 36 9 206 15001 6679 43% 30 54337 3644 68%
c 
c  seconds   reductions    redundant   irredundant
c          MB    restarts         trail      variables
c           level    conflicts        glue        remaining
c 
c p 19.73 667 36 9 206 15001 14139 43% 30 54337 3642 68%
c ] 19.75 667 36 9 206 15005 14143 43% 30 54337 3642 68%
c { 19.75 667 32 9 206 15005 14143 36% 20 54337 3642 68%
c B 19.77 667 32 9 206 15014 14149 36% 20 54337 3642 68%
c s 20.04 667 31 9 249 15689 14338 36% 20 52261 3642 68%
c v 20.30 667 31 9 249 15689 14338 36% 20 52228 3642 68%
c t 20.33 667 31 9 249 15689 14308 36% 20 52158 3642 68%
c e 20.46 668 31 9 249 15689 5970 36% 20 46303 654 12%
c s 20.52 668 31 9 249 15689 5970 36% 20 45218 654 12%
c - 20.87 668 30 10 266 16516 3489 80% 19 45218 654 12%
c - 21.48 668 26 11 281 19816 3501 79% 18 45218 654 12%
c W 21.83 668 25 11 367 21019 4297 79% 18 45218 654 12%
c - 22.09 668 24 12 397 23422 4003 79% 17 45218 654 12%
c - 22.92 668 24 13 611 27322 4546 78% 17 45218 654 12%
c F 23.01 668 23 13 611 28020 4987 78% 17 45218 654 12%
c 2 23.45 668 23 13 654 30003 6709 78% 17 45216 654 12%
c p 24.01 668 23 13 654 30003 9122 78% 17 45216 647 12%
c } 24.26 668 23 13 675 31006 9660 78% 17 45216 647 12%
c [ 24.26 668 36 13 675 31006 9660 248% 30 45216 647 12%
c - 24.40 668 36 14 675 31523 5089 239% 29 45195 647 12%
c 
c  seconds   reductions    redundant    irredundant
c          MB     restarts        trail       variables
c           level     conflicts        glue       remaining
c 
c B 25.46 668 31 14 678 36023 7751 189% 25 45195 647 12%
c - 25.47 668 31 15 678 36023 5319 189% 25 45195 647 12%
c s 26.11 667 30 15 681 40137 8469 163% 25 43678 647 12%
c v 26.35 667 30 15 681 40137 8469 163% 25 43660 647 12%
c w 26.37 667 30 15 681 40137 8468 163% 25 43660 647 12%
c t 26.37 667 30 15 681 40137 8467 163% 25 43658 647 12%
c s 26.59 667 30 15 681 40137 8466 163% 25 42030 647 12%
c - 26.86 667 30 16 681 40829 6326 160% 25 42030 647 12%
c W 27.70 667 30 16 682 45024 8955 144% 25 42030 647 12%
c - 27.89 667 30 17 682 45930 6357 142% 25 42030 647 12%
c p 28.88 667 28 17 683 50004 11829 132% 24 42030 646 12%
c d 28.90 667 28 17 683 50004 11824 132% 24 32390 645 12%
c - 29.19 667 28 18 683 51330 6691 129% 24 32390 645 12%
c O 29.97 667 29 18 684 55025 9069 123% 24 32390 645 12%
c - 30.19 667 28 19 686 57030 6965 120% 24 32390 645 12%
c ] 30.82 667 27 19 690 63007 10790 113% 23 32390 645 12%
c { 30.82 667 23 19 690 63007 10790 78% 17 32390 645 12%
c - 30.84 667 23 20 693 63030 7125 78% 17 32390 645 12%
c B 31.44 667 23 20 958 66028 9013 78% 17 32390 645 12%
c - 31.94 667 22 21 1073 69330 7127 78% 17 32390 645 12%
c 
c  seconds   reductions      redundant   irredundant
c          MB     restarts          trail      variables
c           level      conflicts        glue       remaining
c 
c p 32.97 667 21 21 1119 75006 13877 78% 16 32390 642 12%
c d 33.01 667 21 21 1119 75006 13784 78% 16 31565 640 12%
c - 33.22 668 21 22 1129 75932 7520 78% 16 31565 640 12%
c s 33.41 668 20 22 1129 76270 7675 78% 16 31220 640 12%
c v 33.62 668 20 22 1129 76270 7675 78% 16 31207 640 12%
c t 33.64 668 20 22 1129 76270 7650 78% 16 31204 640 12%
c e 33.72 668 20 22 1129 76270 7615 78% 16 31006 575 11%
c s 33.82 668 20 22 1129 76270 7614 78% 16 30876 575 11%
c W 34.16 668 20 22 1133 78031 8478 78% 16 30876 575 11%
c - 34.82 668 19 23 1220 82832 7912 77% 15 30876 575 11%
c - 35.72 668 18 24 1352 90035 8237 77% 14 30876 575 11%
c # 35.89 668 18 24 1427 91032 8856 77% 15 30876 575 11%
c i 36.97 668 18 24 1798 97348 12345 76% 15 30876 574 11%
c - 37.04 668 18 25 1809 97535 8251 76% 15 30873 574 11%
c i 37.38 668 18 25 1810 99850 9549 76% 14 30873 573 11%
c p 38.41 668 18 25 2052 105007 15222 76% 14 30873 572 11%
c B 38.44 668 18 25 2052 105033 15236 76% 14 30873 572 11%
c - 38.52 668 18 26 2064 105336 7656 76% 14 30867 572 11%
c - 39.87 668 17 27 2232 113440 9410 76% 14 30867 572 11%
c W 41.38 668 17 27 2382 120036 12674 76% 14 30867 572 11%
c 
c  seconds   reductions      redundant   irredundant
c          MB     restarts          trail      variables
c           level      conflicts        glue       remaining
c 
c - 41.75 668 17 28 2426 121841 9704 76% 14 30867 572 11%
c s 41.96 668 17 28 2450 122247 9596 76% 14 29792 572 11%
c v 42.20 668 17 28 2450 122247 9596 76% 14 29752 572 11%
c w 42.22 668 17 28 2450 122247 9582 76% 14 29752 572 11%
c t 42.22 668 17 28 2450 122247 9580 76% 14 29752 572 11%
c e 42.29 668 17 28 2450 122247 9569 76% 14 29732 556 10%
c s 42.45 668 17 28 2450 122247 9568 76% 14 29301 556 10%
c } 43.35 668 17 28 2510 127007 11985 76% 14 29301 556 10%
c [ 43.35 668 27 28 2510 127007 11985 113% 23 29301 556 10%
c - 43.95 668 27 29 2510 130541 10524 109% 23 29301 556 10%
c B 44.99 668 27 29 2514 136038 13824 104% 22 29301 556 10%
c - 45.43 668 26 30 2517 139541 11407 102% 22 29301 556 10%
c p 45.95 668 26 30 2517 140016 14999 101% 22 29301 553 10%
c - 47.53 668 26 31 2518 148844 12452 85% 22 29292 553 10%
c W 48.24 668 26 31 2519 153040 14953 85% 22 29292 553 10%
c - 48.97 668 26 32 2519 158444 12544 85% 22 29292 553 10%
c - 50.82 668 24 33 2519 168345 12793 85% 21 29292 553 10%
c I 51.22 668 25 33 2522 171041 14605 85% 21 29292 553 10%
c - 52.54 668 28 34 2526 178545 13607 84% 23 29292 553 10%
c s 52.84 668 28 34 2526 179446 14249 84% 23 29020 553 10%
c 
c  seconds   reductions       redundant   irredundant
c          MB     restarts           trail      variables
c           level      conflicts         glue       remaining
c 
c v 53.05 668 28 34 2526 179446 14249 84% 23 28978 553 10%
c w 53.07 668 28 34 2526 179446 14248 84% 23 28978 553 10%
c t 53.07 668 28 34 2526 179446 14248 84% 23 28977 548 10%
c s 53.27 668 28 34 2526 179446 13445 84% 23 28262 548 10%
c e 53.34 668 28 34 2526 179446 13444 84% 23 28260 546 10%
c d 53.49 668 28 34 2526 180020 13650 84% 23 27949 545 10%
c 2 53.50 668 28 34 2526 180020 13871 84% 23 27949 517 10%
c p 53.67 668 28 34 2526 180020 16108 84% 23 27949 517 10%
c - 55.20 668 28 35 2532 189046 13092 84% 24 27612 517 10%
c B 55.37 668 28 35 2533 190044 13621 84% 24 27612 517 10%
c - 56.86 668 28 36 2534 199846 13243 84% 24 27612 517 10%
c ] 56.89 668 28 36 2534 200003 13332 84% 24 27612 517 10%
c ? 56.89 668 28 36 2534 200003 13332 84% 24 27612 517 10%
c 
c --- [ writing output ] -----------------------------------------------------
c 
c writing simplified CNF to DIMACS file 'simp/12.cubes795.adj.simp1'
c * 56.89 668 28 36 2534 200003 13332 84% 24 27612 517 10%
c opening file to write 'simp/12.cubes795.adj.simp1'
c writing 'p cnf 5320 27612' header
c closing file 'simp/12.cubes795.adj.simp1'
c after writing 10145480 bytes 9.7 MB
c wrote 27612 clauses in 0.08 seconds process time
c 
c --- [ writing extension ] --------------------------------------------------
c 
c writing extension stack to 'simp/12.cubes795.adj.ext1'
c opening file to write 'simp/12.cubes795.adj.ext1'
c closing file 'simp/12.cubes795.adj.ext1'
c after writing 185828 bytes 0.2 MB
c wrote 8315 witnesses in 0.00 seconds process time
c 
c --- [ result ] -------------------------------------------------------------
c 
c UNKNOWN
c 
c --- [ run-time profiling ] -------------------------------------------------
c 
c process time taken by individual solving procedures
c (percentage relative to process time for solving)
c 
c        40.75   84.75% search
c        19.95   41.50% unstable
c        19.73   41.03% stable
c         8.81   18.32% parse
c         7.33   15.25% simplify
c         3.67    7.64% probe
c         1.24    2.58% vivify
c         1.12    2.33% subsume
c         0.93    1.94% elim
c         0.54    1.12% walk
c         0.53    1.10% lucky
c         0.07    0.15% ternary
c   =================================
c        48.08   84.39% solve
c 
c last line shows process time for solving
c (percentage relative to total process time)
c 
c --- [ statistics ] ---------------------------------------------------------
c 
c chronological:             31104        15.55 %  of conflicts
c conflicts:                200003      4159.86    per second
c decisions:                288097      5992.13    per second
c eliminated:                 3071        57.73 %  of all variables
c fixed:                      1715        32.24 %  of all variables
c learned:                  196047        98.02 %  per conflict
c learned_lits:           31959576       100.00 %  learned literals
c minimized:                     0         0.00 %  learned literals
c shrunken:               22896736        71.64 %  learned literals
c minishrunken:            1670460         5.23 %  learned literals
c propagations:           11071631         0.23 M  per second
c reduced:                  101312        50.66 %  per conflict
c rephased:                     19     10526.47    interval
c restarts:                   2534        78.93    interval
c stabilizing:                   4        57.50 %  of conflicts
c substituted:                  17         0.32 %  of all variables
c subsumed:                  87263         3.74 %  of all clauses
c strengthened:              21941         0.94 %  of all clauses
c ternary:                    6766         0.75 %  of resolved
c vivified:                    238         0.01 %  of all clauses
c walked:                        5     40000.60    interval
c weakened:                   6600         2.99    average size
c 
c seconds are measured in process time for solving
c 
c --- [ resources ] ----------------------------------------------------------
c 
c total process time since initialization:        56.97    seconds
c total real time since initialization:           57.05    seconds
c maximum resident set size of process:          740.48    MB
c 
c --- [ shutting down ] ------------------------------------------------------
c 
c exit 0
WARNING! DIMACS header mismatch: wrong number of variables.
============================[ Problem Statistics ]=============================
|                                                                             |
|  Number of variables:          2924                                         |
|  Number of clauses:           27622                                         |
|  Parse time:                   0.13 s                                       |
|  Simplification time:          0.00 s                                       |
|                                                                             |
============================[ Search Statistics ]====================================================
| Conflicts |          ORIGINAL         |          LEARNT          | Num Sols |      SUBGRAPHS      |
|           |    Vars  Clauses Literals |    Limit  Clauses Lit/Cl |          | Canonical Noncanon. |
=====================================================================================================
|       101 |    2832    27623  2173804 |     2000      101    127 |        0 |        21         1 |
|       262 |    2832    27634  2174017 |     2000      262    103 |        0 |        24        12 |
|       535 |    2832    27682  2174773 |     2000      535     90 |        0 |        33        60 |
|       879 |    2832    27689  2174839 |     2000      879     86 |        0 |        41        67 |
|      1457 |    2832    27761  2175856 |     2000     1457     77 |        0 |        62       139 |
|      2234 |    2832    27779  2176021 |     3604     1238     57 |        0 |        72       157 |
|      3460 |    2832    27866  2177018 |     3604     2464     68 |        0 |        96       244 |
|      5209 |    2832    27907  2177725 |     5002     2411     57 |        0 |        99       285 |
|      7826 |    2832    27962  2178349 |     6304     2530     45 |        0 |       108       340 |
|     12179 |    2832    28471  2183903 |     7553     3732     40 |        0 |       214       849 |
|     18773 |    2832    29299  2193964 |     8778     6551     50 |        0 |       323      1677 |
|     27756 |    2821    29633  2197296 |    11199     6155     35 |        0 |       416      2011 |
|     41788 |    2821    30691  2208579 |    13606     8394     35 |        0 |       642      3069 |
|     63433 |    2777    28071  2109343 |    16004    12244     48 |        0 |      1019      5253 |
=====================================================================================================
Number of solutions   : 0
Canonical subgraphs   : 1038           (55 /sec)
          order  3    : 1              (166667 /sec)
          order  4    : 1              (500000 /sec)
          order  5    : 1              (200000 /sec)
          order  6    : 1              (52632 /sec)
          order  7    : 2              (10811 /sec)
          order  8    : 2              (3205 /sec)
          order  9    : 3              (1066 /sec)
          order 10    : 8              (496 /sec)
          order 11    : 21             (274 /sec)
          order 12    : 65             (160 /sec)
          order 13    : 89             (110 /sec)
          order 14    : 345            (66 /sec)
          order 15    : 430            (42 /sec)
          order 16    : 69             (32 /sec)
          order 17    : 0              (-nan /sec)
          order 18    : 0              (-nan /sec)
          order 19    : 0              (-nan /sec)
          order 20    : 0              (-nan /sec)
          order 21    : 0              (-nan /sec)
Noncanonical subgraphs: 5289           (1958 /sec)
          order  3    : 0              (-nan /sec)
          order  4    : 0              (-nan /sec)
          order  5    : 0              (-nan /sec)
          order  6    : 0              (-nan /sec)
          order  7    : 0              (-nan /sec)
          order  8    : 0              (-nan /sec)
          order  9    : 0              (-nan /sec)
          order 10    : 0              (-nan /sec)
          order 11    : 0              (-nan /sec)
          order 12    : 0              (-nan /sec)
          order 13    : 432            (20895 /sec)
          order 14    : 1887           (3182 /sec)
          order 15    : 1859           (1884 /sec)
          order 16    : 1105           (1035 /sec)
          order 17    : 6              (179 /sec)
          order 18    : 0              (-nan /sec)
          order 19    : 0              (-nan /sec)
          order 20    : 0              (-nan /sec)
Canonicity checking   : 18.8204 s
Noncanonicity checking: 2.70189 s
Total canonicity time : 21.5223 s
database reductions   : 12
restarts              : 191
conflicts             : 64174          (2178 /sec)
decisions             : 98870          (0.00 % random) (3356 /sec)
propagations          : 2329191        (79059 /sec)
conflict literals     : 4453233        (54.14 % deleted)
actual reward         : 0.338526
Memory used           : 47.00 MB
CPU time              : 29.4613 s

UNSATISFIABLE
